(set-info :smt-lib-version 2.6)
(set-logic UFLIA)
(set-info :source |Benchmarks from the paper: "Extending Sledgehammer with SMT Solvers" by Jasmin Blanchette, Sascha Bohme, and Lawrence C. Paulson, CADE 2011.  Translated to SMT2 by Andrew Reynolds and Morgan Deters.|)
(set-info :category "industrial")
(set-info :status unknown)
(declare-sort S1 0)
(declare-sort S2 0)
(declare-sort S3 0)
(declare-sort S4 0)
(declare-sort S5 0)
(declare-sort S6 0)
(declare-sort S7 0)
(declare-sort S8 0)
(declare-sort S9 0)
(declare-sort S10 0)
(declare-sort S11 0)
(declare-sort S12 0)
(declare-sort S13 0)
(declare-sort S14 0)
(declare-sort S15 0)
(declare-sort S16 0)
(declare-sort S17 0)
(declare-sort S18 0)
(declare-sort S19 0)
(declare-sort S20 0)
(declare-sort S21 0)
(declare-sort S22 0)
(declare-sort S23 0)
(declare-sort S24 0)
(declare-sort S25 0)
(declare-sort S26 0)
(declare-sort S27 0)
(declare-sort S28 0)
(declare-sort S29 0)
(declare-sort S30 0)
(declare-sort S31 0)
(declare-sort S32 0)
(declare-sort S33 0)
(declare-sort S34 0)
(declare-sort S35 0)
(declare-sort S36 0)
(declare-sort S37 0)
(declare-sort S38 0)
(declare-sort S39 0)
(declare-sort S40 0)
(declare-sort S41 0)
(declare-sort S42 0)
(declare-sort S43 0)
(declare-sort S44 0)
(declare-fun f1 () S1)
(declare-fun f2 () S1)
(declare-fun f3 (S3 S2) S4)
(declare-fun f4 () S3)
(declare-fun f5 (S5 S6) S4)
(declare-fun f6 (S7 S8) S5)
(declare-fun f7 (S9 S6) S7)
(declare-fun f8 () S9)
(declare-fun f9 (S2) S6)
(declare-fun f10 (S10 S2) S8)
(declare-fun f11 () S10)
(declare-fun f12 (S2) S6)
(declare-fun f13 (S11 S4) S1)
(declare-fun f14 (S4) S11)
(declare-fun f15 (S12 S2) S1)
(declare-fun f16 (S2) S12)
(declare-fun f17 (S4) S11)
(declare-fun f18 (S2) S12)
(declare-fun f19 (S13 S11) S11)
(declare-fun f20 (S4) S13)
(declare-fun f21 (S4 S11) S1)
(declare-fun f22 (S14 S12) S12)
(declare-fun f23 (S2) S14)
(declare-fun f24 (S2 S12) S1)
(declare-fun f25 (S4) S13)
(declare-fun f26 (S2) S14)
(declare-fun f27 (S4) S13)
(declare-fun f28 (S2) S14)
(declare-fun f29 (S4) S13)
(declare-fun f30 (S2) S14)
(declare-fun f31 (S16 S3) S3)
(declare-fun f32 (S17 S15) S16)
(declare-fun f33 () S17)
(declare-fun f34 (S15 S4) S4)
(declare-fun f35 (S19 S2) S2)
(declare-fun f36 (S20 S3) S19)
(declare-fun f37 (S21 S18) S20)
(declare-fun f38 () S21)
(declare-fun f39 (S18 S4) S2)
(declare-fun f40 (S22 S18) S15)
(declare-fun f41 (S23 S3) S22)
(declare-fun f42 () S23)
(declare-fun f43 (S24 S19) S3)
(declare-fun f44 (S25 S3) S24)
(declare-fun f45 () S25)
(declare-fun f46 (S26 S4) S15)
(declare-fun f47 () S26)
(declare-fun f48 (S27 S4) S3)
(declare-fun f49 () S27)
(declare-fun f50 (S28 S2) S18)
(declare-fun f51 () S28)
(declare-fun f52 (S29 S2) S19)
(declare-fun f53 () S29)
(declare-fun f54 () S15)
(declare-fun f55 () S19)
(declare-fun f56 () S11)
(declare-fun f57 () S12)
(declare-fun f58 (S11 S11) S1)
(declare-fun f59 () S11)
(declare-fun f60 (S4) S13)
(declare-fun f61 () S2)
(declare-fun f62 () S11)
(declare-fun f63 () S12)
(declare-fun f64 (S30 S12) S11)
(declare-fun f65 (S3) S30)
(declare-fun f66 (S33 S32) S1)
(declare-fun f67 (S6 S31) S33)
(declare-fun f68 () S12)
(declare-fun f69 (S34 S11) S12)
(declare-fun f70 (S18) S34)
(declare-fun f71 (S2) S14)
(declare-fun f72 (S19) S14)
(declare-fun f73 (S15) S13)
(declare-fun f74 (S36 S4) S37)
(declare-fun f75 (S38 S35) S36)
(declare-fun f76 () S38)
(declare-fun f77 (S39 Int) S37)
(declare-fun f78 () S39)
(declare-fun f79 (S11) S11)
(declare-fun f80 (S12) S12)
(declare-fun f81 (S40 S11) S4)
(declare-fun f82 () S40)
(declare-fun f83 (S41 S12) S2)
(declare-fun f84 () S41)
(declare-fun f85 () S1)
(declare-fun f86 () S8)
(declare-fun f87 (S42 S8) S8)
(declare-fun f88 (S43 S8) S42)
(declare-fun f89 () S43)
(declare-fun f90 () S36)
(declare-fun f91 (S44 S37) Int)
(declare-fun f92 () S44)
(assert (not (= f1 f2)))
(assert (forall ((?v0 S2)) (= (f3 f4 ?v0) (f5 (f6 (f7 f8 (f9 ?v0)) (f10 f11 ?v0)) (f12 ?v0)))))
(assert (forall ((?v0 S4) (?v1 S4)) (= (= (f13 (f14 ?v0) ?v1) f1) (= ?v0 ?v1))))
(assert (forall ((?v0 S2) (?v1 S2)) (= (= (f15 (f16 ?v0) ?v1) f1) (= ?v0 ?v1))))
(assert (forall ((?v0 S4) (?v1 S4)) (= (= (f13 (f17 ?v0) ?v1) f1) (= ?v1 ?v0))))
(assert (forall ((?v0 S2) (?v1 S2)) (= (= (f15 (f18 ?v0) ?v1) f1) (= ?v1 ?v0))))
(assert (forall ((?v0 S4) (?v1 S11) (?v2 S4)) (= (= (f13 (f19 (f20 ?v0) ?v1) ?v2) f1) (or (= ?v2 ?v0) (= (f21 ?v2 ?v1) f1)))))
(assert (forall ((?v0 S2) (?v1 S12) (?v2 S2)) (= (= (f15 (f22 (f23 ?v0) ?v1) ?v2) f1) (or (= ?v2 ?v0) (= (f24 ?v2 ?v1) f1)))))
(assert (forall ((?v0 S4) (?v1 S11) (?v2 S4)) (= (= (f13 (f19 (f25 ?v0) ?v1) ?v2) f1) (and (= ?v0 ?v2) (= (f13 ?v1 ?v2) f1)))))
(assert (forall ((?v0 S2) (?v1 S12) (?v2 S2)) (= (= (f15 (f22 (f26 ?v0) ?v1) ?v2) f1) (and (= ?v0 ?v2) (= (f15 ?v1 ?v2) f1)))))
(assert (forall ((?v0 S4) (?v1 S11) (?v2 S4)) (= (= (f13 (f19 (f27 ?v0) ?v1) ?v2) f1) (and (= ?v2 ?v0) (= (f13 ?v1 ?v2) f1)))))
(assert (forall ((?v0 S2) (?v1 S12) (?v2 S2)) (= (= (f15 (f22 (f28 ?v0) ?v1) ?v2) f1) (and (= ?v2 ?v0) (= (f15 ?v1 ?v2) f1)))))
(assert (forall ((?v0 S4) (?v1 S11) (?v2 S4)) (= (= (f13 (f19 (f29 ?v0) ?v1) ?v2) f1) (=> (not (= ?v2 ?v0)) (= (f13 ?v1 ?v2) f1)))))
(assert (forall ((?v0 S2) (?v1 S12) (?v2 S2)) (= (= (f15 (f22 (f30 ?v0) ?v1) ?v2) f1) (=> (not (= ?v2 ?v0)) (= (f15 ?v1 ?v2) f1)))))
(assert (forall ((?v0 S15) (?v1 S3) (?v2 S2)) (= (f3 (f31 (f32 f33 ?v0) ?v1) ?v2) (f34 ?v0 (f3 ?v1 ?v2)))))
(assert (forall ((?v0 S18) (?v1 S3) (?v2 S2)) (= (f35 (f36 (f37 f38 ?v0) ?v1) ?v2) (f39 ?v0 (f3 ?v1 ?v2)))))
(assert (forall ((?v0 S3) (?v1 S18) (?v2 S4)) (= (f34 (f40 (f41 f42 ?v0) ?v1) ?v2) (f3 ?v0 (f39 ?v1 ?v2)))))
(assert (forall ((?v0 S3) (?v1 S19) (?v2 S2)) (= (f3 (f43 (f44 f45 ?v0) ?v1) ?v2) (f3 ?v0 (f35 ?v1 ?v2)))))
(assert (forall ((?v0 S4) (?v1 S4)) (= (f34 (f46 f47 ?v0) ?v1) ?v0)))
(assert (forall ((?v0 S4) (?v1 S2)) (= (f3 (f48 f49 ?v0) ?v1) ?v0)))
(assert (forall ((?v0 S2) (?v1 S4)) (= (f39 (f50 f51 ?v0) ?v1) ?v0)))
(assert (forall ((?v0 S2) (?v1 S2)) (= (f35 (f52 f53 ?v0) ?v1) ?v0)))
(assert (forall ((?v0 S4)) (= (f34 f54 ?v0) ?v0)))
(assert (forall ((?v0 S2)) (= (f35 f55 ?v0) ?v0)))
(assert (forall ((?v0 S4)) (= (= (f13 f56 ?v0) f1) false)))
(assert (forall ((?v0 S2)) (= (= (f15 f57 ?v0) f1) false)))
(assert (not (= (f58 f59 (f19 (f60 (f5 (f6 (f7 f8 (f9 f61)) (f10 f11 f61)) (f12 f61))) f62)) f1)))
(assert (= (f24 f61 f63) f1))
(assert (= (f58 f59 (f64 (f65 f4) f63)) f1))
(assert (forall ((?v0 S11)) (= (f58 ?v0 f62) f1)))
(assert (forall ((?v0 S6) (?v1 S8) (?v2 S6) (?v3 S6) (?v4 S8) (?v5 S6)) (= (= (f5 (f6 (f7 f8 ?v0) ?v1) ?v2) (f5 (f6 (f7 f8 ?v3) ?v4) ?v5)) (and (= ?v0 ?v3) (and (= ?v1 ?v4) (= ?v2 ?v5))))))
(assert (forall ((?v0 S11) (?v1 S11) (?v2 S11)) (=> (= (f58 ?v0 ?v1) f1) (=> (= (f58 ?v2 ?v0) f1) (= (f58 ?v2 ?v1) f1)))))
(assert (forall ((?v0 S11) (?v1 S4) (?v2 S11)) (let ((?v_0 (f60 ?v1))) (=> (= (f58 ?v0 (f19 ?v_0 f62)) f1) (=> (= (f58 ?v0 ?v2) f1) (= (f58 ?v0 (f19 ?v_0 ?v2)) f1))))))
(assert (forall ((?v0 S11) (?v1 S6) (?v2 S8) (?v3 S6) (?v4 S6)) (let ((?v_0 (f6 (f7 f8 ?v1) ?v2))) (=> (= (f58 ?v0 (f19 (f60 (f5 ?v_0 ?v3)) f62)) f1) (=> (forall ((?v5 S31) (?v6 S32)) (=> (= (f66 (f67 ?v3 ?v5) ?v6) f1) (= (f66 (f67 ?v4 ?v5) ?v6) f1))) (= (f58 ?v0 (f19 (f60 (f5 ?v_0 ?v4)) f62)) f1))))))
(assert (forall ((?v0 S11) (?v1 S6) (?v2 S8) (?v3 S6) (?v4 S6)) (=> (= (f58 ?v0 (f19 (f60 (f5 (f6 (f7 f8 ?v1) ?v2) ?v3)) f62)) f1) (=> (forall ((?v5 S31) (?v6 S32)) (=> (= (f66 (f67 ?v4 ?v5) ?v6) f1) (= (f66 (f67 ?v1 ?v5) ?v6) f1))) (= (f58 ?v0 (f19 (f60 (f5 (f6 (f7 f8 ?v4) ?v2) ?v3)) f62)) f1)))))
(assert (forall ((?v0 S4) (?v1 S12)) (= (f64 (f65 (f48 f49 ?v0)) ?v1) (ite (= ?v1 f68) f62 (f19 (f60 ?v0) f62)))))
(assert (forall ((?v0 S2) (?v1 S11)) (= (f69 (f70 (f50 f51 ?v0)) ?v1) (ite (= ?v1 f62) f68 (f22 (f71 ?v0) f68)))))
(assert (forall ((?v0 S2) (?v1 S12)) (= (f22 (f72 (f52 f53 ?v0)) ?v1) (ite (= ?v1 f68) f68 (f22 (f71 ?v0) f68)))))
(assert (forall ((?v0 S4) (?v1 S11)) (= (f19 (f73 (f46 f47 ?v0)) ?v1) (ite (= ?v1 f62) f62 (f19 (f60 ?v0) f62)))))
(assert (forall ((?v0 S2) (?v1 S12) (?v2 S4)) (=> (= (f24 ?v0 ?v1) f1) (= (f64 (f65 (f48 f49 ?v2)) ?v1) (f19 (f60 ?v2) f62)))))
(assert (forall ((?v0 S4) (?v1 S11) (?v2 S4)) (=> (= (f21 ?v0 ?v1) f1) (= (f19 (f73 (f46 f47 ?v2)) ?v1) (f19 (f60 ?v2) f62)))))
(assert (forall ((?v0 S2) (?v1 S12) (?v2 S2)) (=> (= (f24 ?v0 ?v1) f1) (= (f22 (f72 (f52 f53 ?v2)) ?v1) (f22 (f71 ?v2) f68)))))
(assert (forall ((?v0 S4) (?v1 S11) (?v2 S2)) (=> (= (f21 ?v0 ?v1) f1) (= (f69 (f70 (f50 f51 ?v2)) ?v1) (f22 (f71 ?v2) f68)))))
(assert (forall ((?v0 S11) (?v1 S6) (?v2 S8) (?v3 S6) (?v4 S6) (?v5 S6)) (=> (= (f58 ?v0 (f19 (f60 (f5 (f6 (f7 f8 ?v1) ?v2) ?v3)) f62)) f1) (=> (forall ((?v6 S31) (?v7 S32)) (=> (= (f66 (f67 ?v4 ?v6) ?v7) f1) (forall ((?v8 S32)) (=> (forall ((?v9 S31)) (=> (= (f66 (f67 ?v1 ?v9) ?v7) f1) (= (f66 (f67 ?v3 ?v9) ?v8) f1))) (= (f66 (f67 ?v5 ?v6) ?v8) f1))))) (= (f58 ?v0 (f19 (f60 (f5 (f6 (f7 f8 ?v4) ?v2) ?v5)) f62)) f1)))))
(assert (forall ((?v0 S4) (?v1 S3) (?v2 S2) (?v3 S12)) (=> (= ?v0 (f3 ?v1 ?v2)) (=> (= (f24 ?v2 ?v3) f1) (= (f21 ?v0 (f64 (f65 ?v1) ?v3)) f1)))))
(assert (forall ((?v0 S2) (?v1 S18) (?v2 S4) (?v3 S11)) (=> (= ?v0 (f39 ?v1 ?v2)) (=> (= (f21 ?v2 ?v3) f1) (= (f24 ?v0 (f69 (f70 ?v1) ?v3)) f1)))))
(assert (forall ((?v0 S2) (?v1 S19) (?v2 S2) (?v3 S12)) (=> (= ?v0 (f35 ?v1 ?v2)) (=> (= (f24 ?v2 ?v3) f1) (= (f24 ?v0 (f22 (f72 ?v1) ?v3)) f1)))))
(assert (forall ((?v0 S4) (?v1 S15) (?v2 S4) (?v3 S11)) (=> (= ?v0 (f34 ?v1 ?v2)) (=> (= (f21 ?v2 ?v3) f1) (= (f21 ?v0 (f19 (f73 ?v1) ?v3)) f1)))))
(assert (forall ((?v0 S4) (?v1 S4) (?v2 S11)) (=> (= (f21 ?v0 (f19 (f60 ?v1) ?v2)) f1) (=> (=> (= ?v0 ?v1) false) (=> (=> (= (f21 ?v0 ?v2) f1) false) false)))))
(assert (forall ((?v0 S2) (?v1 S2) (?v2 S12)) (=> (= (f24 ?v0 (f22 (f71 ?v1) ?v2)) f1) (=> (=> (= ?v0 ?v1) false) (=> (=> (= (f24 ?v0 ?v2) f1) false) false)))))
(assert (forall ((?v0 S4) (?v1 S11) (?v2 S4)) (=> (=> (not (= (f21 ?v0 ?v1) f1)) (= ?v0 ?v2)) (= (f21 ?v0 (f19 (f60 ?v2) ?v1)) f1))))
(assert (forall ((?v0 S2) (?v1 S12) (?v2 S2)) (=> (=> (not (= (f24 ?v0 ?v1) f1)) (= ?v0 ?v2)) (= (f24 ?v0 (f22 (f71 ?v2) ?v1)) f1))))
(assert (forall ((?v0 S2)) (=> (= (f24 ?v0 f68) f1) false)))
(assert (forall ((?v0 S4)) (=> (= (f21 ?v0 f62) f1) false)))
(assert (forall ((?v0 S35) (?v1 S6) (?v2 S8) (?v3 S6)) (= (f74 (f75 f76 ?v0) (f5 (f6 (f7 f8 ?v1) ?v2) ?v3)) (f77 f78 0))))
(assert (forall ((?v0 S4)) (= (f79 (f14 ?v0)) (f19 (f60 ?v0) f62))))
(assert (forall ((?v0 S2)) (= (f80 (f16 ?v0)) (f22 (f71 ?v0) f68))))
(assert (forall ((?v0 S4)) (= (f79 (f17 ?v0)) (f19 (f60 ?v0) f62))))
(assert (forall ((?v0 S2)) (= (f80 (f18 ?v0)) (f22 (f71 ?v0) f68))))
(assert (forall ((?v0 S12) (?v1 S2)) (=> (= ?v0 f68) (not (= (f24 ?v1 ?v0) f1)))))
(assert (forall ((?v0 S11) (?v1 S4)) (=> (= ?v0 f62) (not (= (f21 ?v1 ?v0) f1)))))
(assert (forall ((?v0 S11)) (= (= (f79 ?v0) f62) (forall ((?v1 S4)) (not (= (f13 ?v0 ?v1) f1))))))
(assert (forall ((?v0 S12)) (= (= (f80 ?v0) f68) (forall ((?v1 S2)) (not (= (f15 ?v0 ?v1) f1))))))
(assert (forall ((?v0 S2)) (= (= (f24 ?v0 f68) f1) false)))
(assert (forall ((?v0 S4)) (= (= (f21 ?v0 f62) f1) false)))
(assert (forall ((?v0 S11)) (= (= f62 (f79 ?v0)) (forall ((?v1 S4)) (not (= (f13 ?v0 ?v1) f1))))))
(assert (forall ((?v0 S12)) (= (= f68 (f80 ?v0)) (forall ((?v1 S2)) (not (= (f15 ?v0 ?v1) f1))))))
(assert (forall ((?v0 S12)) (= (forall ((?v1 S2)) (=> (= (f24 ?v1 f68) f1) (= (f15 ?v0 ?v1) f1))) true)))
(assert (forall ((?v0 S11)) (= (forall ((?v1 S4)) (=> (= (f21 ?v1 f62) f1) (= (f13 ?v0 ?v1) f1))) true)))
(assert (forall ((?v0 S12)) (= (exists ((?v1 S2)) (and (= (f24 ?v1 f68) f1) (= (f15 ?v0 ?v1) f1))) false)))
(assert (forall ((?v0 S11)) (= (exists ((?v1 S4)) (and (= (f21 ?v1 f62) f1) (= (f13 ?v0 ?v1) f1))) false)))
(assert (forall ((?v0 S12)) (= (exists ((?v1 S2)) (= (f24 ?v1 ?v0) f1)) (not (= ?v0 f68)))))
(assert (forall ((?v0 S11)) (= (exists ((?v1 S4)) (= (f21 ?v1 ?v0) f1)) (not (= ?v0 f62)))))
(assert (forall ((?v0 S12)) (= (forall ((?v1 S2)) (not (= (f24 ?v1 ?v0) f1))) (= ?v0 f68))))
(assert (forall ((?v0 S11)) (= (forall ((?v1 S4)) (not (= (f21 ?v1 ?v0) f1))) (= ?v0 f62))))
(assert (= f62 (f79 f56)))
(assert (= f68 (f80 f57)))
(assert (forall ((?v0 S4) (?v1 S11)) (=> (= (f21 ?v0 ?v1) f1) (= (f19 (f60 ?v0) ?v1) ?v1))))
(assert (forall ((?v0 S2) (?v1 S12)) (=> (= (f24 ?v0 ?v1) f1) (= (f22 (f71 ?v0) ?v1) ?v1))))
(assert (forall ((?v0 S4) (?v1 S11) (?v2 S4)) (=> (= (f21 ?v0 ?v1) f1) (= (f21 ?v0 (f19 (f60 ?v2) ?v1)) f1))))
(assert (forall ((?v0 S2) (?v1 S12) (?v2 S2)) (=> (= (f24 ?v0 ?v1) f1) (= (f24 ?v0 (f22 (f71 ?v2) ?v1)) f1))))
(assert (forall ((?v0 S4) (?v1 S11) (?v2 S11)) (let ((?v_0 (f60 ?v0))) (=> (not (= (f21 ?v0 ?v1) f1)) (=> (not (= (f21 ?v0 ?v2) f1)) (= (= (f19 ?v_0 ?v1) (f19 ?v_0 ?v2)) (= ?v1 ?v2)))))))
(assert (forall ((?v0 S2) (?v1 S12) (?v2 S12)) (let ((?v_0 (f71 ?v0))) (=> (not (= (f24 ?v0 ?v1) f1)) (=> (not (= (f24 ?v0 ?v2) f1)) (= (= (f22 ?v_0 ?v1) (f22 ?v_0 ?v2)) (= ?v1 ?v2)))))))
(assert (forall ((?v0 S4) (?v1 S11) (?v2 S4)) (= (= (f13 (f19 (f60 ?v0) ?v1) ?v2) f1) (or (= ?v0 ?v2) (= (f13 ?v1 ?v2) f1)))))
(assert (forall ((?v0 S2) (?v1 S12) (?v2 S2)) (= (= (f15 (f22 (f71 ?v0) ?v1) ?v2) f1) (or (= ?v0 ?v2) (= (f15 ?v1 ?v2) f1)))))
(assert (forall ((?v0 S4) (?v1 S4) (?v2 S11)) (= (= (f21 ?v0 (f19 (f60 ?v1) ?v2)) f1) (or (= ?v0 ?v1) (= (f21 ?v0 ?v2) f1)))))
(assert (forall ((?v0 S2) (?v1 S2) (?v2 S12)) (= (= (f24 ?v0 (f22 (f71 ?v1) ?v2)) f1) (or (= ?v0 ?v1) (= (f24 ?v0 ?v2) f1)))))
(assert (forall ((?v0 S4) (?v1 S4) (?v2 S11)) (let ((?v_1 (f60 ?v0)) (?v_0 (f60 ?v1))) (= (f19 ?v_1 (f19 ?v_0 ?v2)) (f19 ?v_0 (f19 ?v_1 ?v2))))))
(assert (forall ((?v0 S2) (?v1 S2) (?v2 S12)) (let ((?v_1 (f71 ?v0)) (?v_0 (f71 ?v1))) (= (f22 ?v_1 (f22 ?v_0 ?v2)) (f22 ?v_0 (f22 ?v_1 ?v2))))))
(assert (forall ((?v0 S4) (?v1 S11)) (let ((?v_0 (f60 ?v0))) (let ((?v_1 (f19 ?v_0 ?v1))) (= (f19 ?v_0 ?v_1) ?v_1)))))
(assert (forall ((?v0 S2) (?v1 S12)) (let ((?v_0 (f71 ?v0))) (let ((?v_1 (f22 ?v_0 ?v1))) (= (f22 ?v_0 ?v_1) ?v_1)))))
(assert (forall ((?v0 S4) (?v1 S11)) (= (f19 (f60 ?v0) (f79 ?v1)) (f79 (f19 (f29 ?v0) ?v1)))))
(assert (forall ((?v0 S2) (?v1 S12)) (= (f22 (f71 ?v0) (f80 ?v1)) (f80 (f22 (f30 ?v0) ?v1)))))
(assert (forall ((?v0 S4) (?v1 S11)) (= (f19 (f60 ?v0) ?v1) (f79 (f19 (f20 ?v0) ?v1)))))
(assert (forall ((?v0 S2) (?v1 S12)) (= (f22 (f71 ?v0) ?v1) (f80 (f22 (f23 ?v0) ?v1)))))
(assert (forall ((?v0 S4) (?v1 S11)) (= (f21 ?v0 (f19 (f60 ?v0) ?v1)) f1)))
(assert (forall ((?v0 S2) (?v1 S12)) (= (f24 ?v0 (f22 (f71 ?v0) ?v1)) f1)))
(assert (forall ((?v0 S2) (?v1 S12) (?v2 S4) (?v3 S3)) (=> (= (f24 ?v0 ?v1) f1) (=> (= ?v2 (f3 ?v3 ?v0)) (= (f21 ?v2 (f64 (f65 ?v3) ?v1)) f1)))))
(assert (forall ((?v0 S4) (?v1 S11) (?v2 S2) (?v3 S18)) (=> (= (f21 ?v0 ?v1) f1) (=> (= ?v2 (f39 ?v3 ?v0)) (= (f24 ?v2 (f69 (f70 ?v3) ?v1)) f1)))))
(assert (forall ((?v0 S2) (?v1 S12) (?v2 S2) (?v3 S19)) (=> (= (f24 ?v0 ?v1) f1) (=> (= ?v2 (f35 ?v3 ?v0)) (= (f24 ?v2 (f22 (f72 ?v3) ?v1)) f1)))))
(assert (forall ((?v0 S4) (?v1 S11) (?v2 S4) (?v3 S15)) (=> (= (f21 ?v0 ?v1) f1) (=> (= ?v2 (f34 ?v3 ?v0)) (= (f21 ?v2 (f19 (f73 ?v3) ?v1)) f1)))))
(assert (forall ((?v0 S2) (?v1 S12) (?v2 S3)) (=> (= (f24 ?v0 ?v1) f1) (= (f21 (f3 ?v2 ?v0) (f64 (f65 ?v2) ?v1)) f1))))
(assert (forall ((?v0 S4) (?v1 S11) (?v2 S18)) (=> (= (f21 ?v0 ?v1) f1) (= (f24 (f39 ?v2 ?v0) (f69 (f70 ?v2) ?v1)) f1))))
(assert (forall ((?v0 S2) (?v1 S12) (?v2 S19)) (=> (= (f24 ?v0 ?v1) f1) (= (f24 (f35 ?v2 ?v0) (f22 (f72 ?v2) ?v1)) f1))))
(assert (forall ((?v0 S4) (?v1 S11) (?v2 S15)) (=> (= (f21 ?v0 ?v1) f1) (= (f21 (f34 ?v2 ?v0) (f19 (f73 ?v2) ?v1)) f1))))
(assert (forall ((?v0 S4) (?v1 S3) (?v2 S12)) (= (= (f21 ?v0 (f64 (f65 ?v1) ?v2)) f1) (exists ((?v3 S2)) (and (= (f24 ?v3 ?v2) f1) (= ?v0 (f3 ?v1 ?v3)))))))
(assert (forall ((?v0 S2) (?v1 S18) (?v2 S11)) (= (= (f24 ?v0 (f69 (f70 ?v1) ?v2)) f1) (exists ((?v3 S4)) (and (= (f21 ?v3 ?v2) f1) (= ?v0 (f39 ?v1 ?v3)))))))
(assert (forall ((?v0 S2) (?v1 S19) (?v2 S12)) (= (= (f24 ?v0 (f22 (f72 ?v1) ?v2)) f1) (exists ((?v3 S2)) (and (= (f24 ?v3 ?v2) f1) (= ?v0 (f35 ?v1 ?v3)))))))
(assert (forall ((?v0 S4) (?v1 S15) (?v2 S11)) (= (= (f21 ?v0 (f19 (f73 ?v1) ?v2)) f1) (exists ((?v3 S4)) (and (= (f21 ?v3 ?v2) f1) (= ?v0 (f34 ?v1 ?v3)))))))
(assert (forall ((?v0 S4) (?v1 S11)) (= (f19 (f60 ?v0) ?v1) (f79 (f19 (f20 ?v0) ?v1)))))
(assert (forall ((?v0 S2) (?v1 S12)) (= (f22 (f71 ?v0) ?v1) (f80 (f22 (f23 ?v0) ?v1)))))
(assert (forall ((?v0 S12)) (= (f22 (f72 f55) ?v0) ?v0)))
(assert (forall ((?v0 S11)) (= (f19 (f73 f54) ?v0) ?v0)))
(assert (forall ((?v0 S18) (?v1 S3) (?v2 S12)) (= (f69 (f70 ?v0) (f64 (f65 ?v1) ?v2)) (f22 (f72 (f36 (f37 f38 ?v0) ?v1)) ?v2))))
(assert (forall ((?v0 S15) (?v1 S3) (?v2 S12)) (= (f19 (f73 ?v0) (f64 (f65 ?v1) ?v2)) (f64 (f65 (f31 (f32 f33 ?v0) ?v1)) ?v2))))
(assert (forall ((?v0 S3) (?v1 S18) (?v2 S11)) (= (f64 (f65 ?v0) (f69 (f70 ?v1) ?v2)) (f19 (f73 (f40 (f41 f42 ?v0) ?v1)) ?v2))))
(assert (forall ((?v0 S3) (?v1 S19) (?v2 S12)) (= (f64 (f65 ?v0) (f22 (f72 ?v1) ?v2)) (f64 (f65 (f43 (f44 f45 ?v0) ?v1)) ?v2))))
(assert (forall ((?v0 S4) (?v1 S4)) (=> (= (f19 (f60 ?v0) f62) (f19 (f60 ?v1) f62)) (= ?v0 ?v1))))
(assert (forall ((?v0 S2) (?v1 S2)) (=> (= (f22 (f71 ?v0) f68) (f22 (f71 ?v1) f68)) (= ?v0 ?v1))))
(assert (forall ((?v0 S4) (?v1 S4)) (=> (= (f21 ?v0 (f19 (f60 ?v1) f62)) f1) (=> (=> (= ?v0 ?v1) false) false))))
(assert (forall ((?v0 S2) (?v1 S2)) (=> (= (f24 ?v0 (f22 (f71 ?v1) f68)) f1) (=> (=> (= ?v0 ?v1) false) false))))
(assert (forall ((?v0 S4) (?v1 S4) (?v2 S4) (?v3 S4)) (= (= (f19 (f60 ?v0) (f19 (f60 ?v1) f62)) (f19 (f60 ?v2) (f19 (f60 ?v3) f62))) (or (and (= ?v0 ?v2) (= ?v1 ?v3)) (and (= ?v0 ?v3) (= ?v1 ?v2))))))
(assert (forall ((?v0 S2) (?v1 S2) (?v2 S2) (?v3 S2)) (= (= (f22 (f71 ?v0) (f22 (f71 ?v1) f68)) (f22 (f71 ?v2) (f22 (f71 ?v3) f68))) (or (and (= ?v0 ?v2) (= ?v1 ?v3)) (and (= ?v0 ?v3) (= ?v1 ?v2))))))
(assert (forall ((?v0 S4) (?v1 S4)) (= (= (f21 ?v0 (f19 (f60 ?v1) f62)) f1) (= ?v0 ?v1))))
(assert (forall ((?v0 S2) (?v1 S2)) (= (= (f24 ?v0 (f22 (f71 ?v1) f68)) f1) (= ?v0 ?v1))))
(assert (forall ((?v0 S4) (?v1 S11)) (not (= (f19 (f60 ?v0) ?v1) f62))))
(assert (forall ((?v0 S2) (?v1 S12)) (not (= (f22 (f71 ?v0) ?v1) f68))))
(assert (forall ((?v0 S4) (?v1 S11)) (not (= f62 (f19 (f60 ?v0) ?v1)))))
(assert (forall ((?v0 S2) (?v1 S12)) (not (= f68 (f22 (f71 ?v0) ?v1)))))
(assert (forall ((?v0 S3) (?v1 S12)) (= (= (f64 (f65 ?v0) ?v1) f62) (= ?v1 f68))))
(assert (forall ((?v0 S18) (?v1 S11)) (= (= (f69 (f70 ?v0) ?v1) f68) (= ?v1 f62))))
(assert (forall ((?v0 S19) (?v1 S12)) (= (= (f22 (f72 ?v0) ?v1) f68) (= ?v1 f68))))
(assert (forall ((?v0 S15) (?v1 S11)) (= (= (f19 (f73 ?v0) ?v1) f62) (= ?v1 f62))))
(assert (forall ((?v0 S3)) (= (f64 (f65 ?v0) f68) f62)))
(assert (forall ((?v0 S18)) (= (f69 (f70 ?v0) f62) f68)))
(assert (forall ((?v0 S19)) (= (f22 (f72 ?v0) f68) f68)))
(assert (forall ((?v0 S15)) (= (f19 (f73 ?v0) f62) f62)))
(assert (forall ((?v0 S3) (?v1 S12)) (= (= f62 (f64 (f65 ?v0) ?v1)) (= ?v1 f68))))
(assert (forall ((?v0 S18) (?v1 S11)) (= (= f68 (f69 (f70 ?v0) ?v1)) (= ?v1 f62))))
(assert (forall ((?v0 S19) (?v1 S12)) (= (= f68 (f22 (f72 ?v0) ?v1)) (= ?v1 f68))))
(assert (forall ((?v0 S15) (?v1 S11)) (= (= f62 (f19 (f73 ?v0) ?v1)) (= ?v1 f62))))
(assert (forall ((?v0 S2) (?v1 S12) (?v2 S3)) (let ((?v_0 (f64 (f65 ?v2) ?v1))) (=> (= (f24 ?v0 ?v1) f1) (= (f19 (f60 (f3 ?v2 ?v0)) ?v_0) ?v_0)))))
(assert (forall ((?v0 S4) (?v1 S11) (?v2 S15)) (let ((?v_0 (f19 (f73 ?v2) ?v1))) (=> (= (f21 ?v0 ?v1) f1) (= (f19 (f60 (f34 ?v2 ?v0)) ?v_0) ?v_0)))))
(assert (forall ((?v0 S2) (?v1 S12) (?v2 S19)) (let ((?v_0 (f22 (f72 ?v2) ?v1))) (=> (= (f24 ?v0 ?v1) f1) (= (f22 (f71 (f35 ?v2 ?v0)) ?v_0) ?v_0)))))
(assert (forall ((?v0 S4) (?v1 S11) (?v2 S18)) (let ((?v_0 (f69 (f70 ?v2) ?v1))) (=> (= (f21 ?v0 ?v1) f1) (= (f22 (f71 (f39 ?v2 ?v0)) ?v_0) ?v_0)))))
(assert (forall ((?v0 S3) (?v1 S2) (?v2 S12)) (let ((?v_0 (f65 ?v0))) (= (f64 ?v_0 (f22 (f71 ?v1) ?v2)) (f19 (f60 (f3 ?v0 ?v1)) (f64 ?v_0 ?v2))))))
(assert (forall ((?v0 S18) (?v1 S4) (?v2 S11)) (let ((?v_0 (f70 ?v0))) (= (f69 ?v_0 (f19 (f60 ?v1) ?v2)) (f22 (f71 (f39 ?v0 ?v1)) (f69 ?v_0 ?v2))))))
(assert (forall ((?v0 S19) (?v1 S2) (?v2 S12)) (let ((?v_0 (f72 ?v0))) (= (f22 ?v_0 (f22 (f71 ?v1) ?v2)) (f22 (f71 (f35 ?v0 ?v1)) (f22 ?v_0 ?v2))))))
(assert (forall ((?v0 S15) (?v1 S4) (?v2 S11)) (let ((?v_0 (f73 ?v0))) (= (f19 ?v_0 (f19 (f60 ?v1) ?v2)) (f19 (f60 (f34 ?v0 ?v1)) (f19 ?v_0 ?v2))))))
(assert (forall ((?v0 S4) (?v1 S11)) (= (f79 (f19 (f27 ?v0) ?v1)) (ite (= (f13 ?v1 ?v0) f1) (f19 (f60 ?v0) f62) f62))))
(assert (forall ((?v0 S2) (?v1 S12)) (= (f80 (f22 (f28 ?v0) ?v1)) (ite (= (f15 ?v1 ?v0) f1) (f22 (f71 ?v0) f68) f68))))
(assert (forall ((?v0 S4) (?v1 S11)) (= (f79 (f19 (f25 ?v0) ?v1)) (ite (= (f13 ?v1 ?v0) f1) (f19 (f60 ?v0) f62) f62))))
(assert (forall ((?v0 S2) (?v1 S12)) (= (f80 (f22 (f26 ?v0) ?v1)) (ite (= (f15 ?v1 ?v0) f1) (f22 (f71 ?v0) f68) f68))))
(assert (forall ((?v0 S4) (?v1 S3) (?v2 S12)) (=> (= (f21 ?v0 (f64 (f65 ?v1) ?v2)) f1) (=> (forall ((?v3 S2)) (=> (= ?v0 (f3 ?v1 ?v3)) (=> (= (f24 ?v3 ?v2) f1) false))) false))))
(assert (forall ((?v0 S2) (?v1 S18) (?v2 S11)) (=> (= (f24 ?v0 (f69 (f70 ?v1) ?v2)) f1) (=> (forall ((?v3 S4)) (=> (= ?v0 (f39 ?v1 ?v3)) (=> (= (f21 ?v3 ?v2) f1) false))) false))))
(assert (forall ((?v0 S2) (?v1 S19) (?v2 S12)) (=> (= (f24 ?v0 (f22 (f72 ?v1) ?v2)) f1) (=> (forall ((?v3 S2)) (=> (= ?v0 (f35 ?v1 ?v3)) (=> (= (f24 ?v3 ?v2) f1) false))) false))))
(assert (forall ((?v0 S4) (?v1 S15) (?v2 S11)) (=> (= (f21 ?v0 (f19 (f73 ?v1) ?v2)) f1) (=> (forall ((?v3 S4)) (=> (= ?v0 (f34 ?v1 ?v3)) (=> (= (f21 ?v3 ?v2) f1) false))) false))))
(assert (forall ((?v0 S4)) (= (f81 f82 (f19 (f60 ?v0) f62)) ?v0)))
(assert (forall ((?v0 S2)) (= (f83 f84 (f22 (f71 ?v0) f68)) ?v0)))
(assert (forall ((?v0 S4)) (= (= (f13 f62 ?v0) f1) (= f85 f1))))
(assert (forall ((?v0 S2)) (= (= (f15 f68 ?v0) f1) (= f85 f1))))
(assert (forall ((?v0 S4)) (= (= (f13 f62 ?v0) f1) (= f85 f1))))
(assert (forall ((?v0 S2)) (= (= (f15 f68 ?v0) f1) (= f85 f1))))
(assert (forall ((?v0 S11) (?v1 S6)) (= (f58 ?v0 (f19 (f60 (f5 (f6 (f7 f8 ?v1) f86) ?v1)) f62)) f1)))
(assert (forall ((?v0 S11) (?v1 S6) (?v2 S8) (?v3 S6) (?v4 S8) (?v5 S6)) (let ((?v_0 (f7 f8 ?v1))) (=> (= (f58 ?v0 (f19 (f60 (f5 (f6 ?v_0 ?v2) ?v3)) f62)) f1) (=> (= (f58 ?v0 (f19 (f60 (f5 (f6 (f7 f8 ?v3) ?v4) ?v5)) f62)) f1) (= (f58 ?v0 (f19 (f60 (f5 (f6 ?v_0 (f87 (f88 f89 ?v2) ?v4)) ?v5)) f62)) f1))))))
(assert (forall ((?v0 S6) (?v1 S8) (?v2 S6)) (= (f74 f90 (f5 (f6 (f7 f8 ?v0) ?v1) ?v2)) (f77 f78 0))))
(assert (forall ((?v0 S37)) (= (f77 f78 (f91 f92 ?v0)) ?v0)))
(assert (forall ((?v0 Int)) (=> (<= 0 ?v0) (= (f91 f92 (f77 f78 ?v0)) ?v0))))
(assert (forall ((?v0 Int)) (=> (< ?v0 0) (= (f91 f92 (f77 f78 ?v0)) 0))))
(check-sat)
(exit)
